(set-info :status unknown)
(declare-fun C2 () (_ BitVec 11))
(declare-fun C3 () (_ BitVec 11))
(declare-fun C () (_ BitVec 16))
(assert
 (let ((?x1884 (ite (and (distinct ((_ extract 2 2) (bvsub C3 C2)) (_ bv0 1)) true) (_ bv2 11) (ite (and (distinct ((_ extract 1 1) (bvsub C3 C2)) (_ bv0 1)) true) (_ bv1 11) (_ bv0 11)))))
 (let ((?x2816 (ite (and (distinct ((_ extract 5 5) (bvsub C3 C2)) (_ bv0 1)) true) (_ bv5 11) (ite (and (distinct ((_ extract 4 4) (bvsub C3 C2)) (_ bv0 1)) true) (_ bv4 11) (_ bv3 11)))))
 (let ((?x1907 (ite (and (distinct ((_ extract 8 8) (bvsub C3 C2)) (_ bv0 1)) true) (_ bv8 11) (ite (and (distinct ((_ extract 7 7) (bvsub C3 C2)) (_ bv0 1)) true) (_ bv7 11) (_ bv6 11)))))
 (let ((?x4475 (ite (and (distinct ((_ extract 10 9) (bvsub C3 C2)) (_ bv0 2)) true) (ite (and (distinct ((_ extract 10 10) (bvsub C3 C2)) (_ bv0 1)) true) (_ bv10 11) (_ bv9 11)) ?x1907)))
 (let ((?x3226 (ite (and (distinct ((_ extract 10 6) (bvsub C3 C2)) (_ bv0 5)) true) ?x4475 (ite (and (distinct ((_ extract 5 3) (bvsub C3 C2)) (_ bv0 3)) true) ?x2816 ?x1884))))
 (let ((?x4086 (ite (and (distinct ((_ extract 3 2) C) (_ bv0 2)) true) (ite (and (distinct ((_ extract 3 3) C) (_ bv0 1)) true) (_ bv3 11) (_ bv2 11)) (ite (and (distinct ((_ extract 1 1) C) (_ bv0 1)) true) (_ bv1 11) (_ bv0 11)))))
 (let ((?x1881 (ite (and (distinct ((_ extract 7 6) C) (_ bv0 2)) true) (ite (and (distinct ((_ extract 7 7) C) (_ bv0 1)) true) (_ bv7 11) (_ bv6 11)) (ite (and (distinct ((_ extract 5 5) C) (_ bv0 1)) true) (_ bv5 11) (_ bv4 11)))))
 (let ((?x5266 (ite (and (distinct ((_ extract 11 10) C) (_ bv0 2)) true) (ite (and (distinct ((_ extract 11 11) C) (_ bv0 1)) true) (_ bv11 11) (_ bv10 11)) (ite (and (distinct ((_ extract 9 9) C) (_ bv0 1)) true) (_ bv9 11) (_ bv8 11)))))
 (let ((?x5073 (ite (and (distinct ((_ extract 15 14) C) (_ bv0 2)) true) (ite (and (distinct ((_ extract 15 15) C) (_ bv0 1)) true) (_ bv15 11) (_ bv14 11)) (ite (and (distinct ((_ extract 13 13) C) (_ bv0 1)) true) (_ bv13 11) (_ bv12 11)))))
 (let ((?x8571 (ite (and (distinct ((_ extract 15 8) C) (_ bv0 8)) true) (ite (and (distinct ((_ extract 15 12) C) (_ bv0 4)) true) ?x5073 ?x5266) (ite (and (distinct ((_ extract 7 4) C) (_ bv0 4)) true) ?x1881 ?x4086))))
 (let ((?x6832 (bvsub ?x8571 ?x3226)))
 (let ((?x7603 (ite (bvsgt (_ bv0 11) ?x6832) (_ bv0 11) ?x6832)))
 (let ((?x1729 (bvsub ?x3226 ?x8571)))
 (let ((?x3760 (ite (bvsgt (_ bv0 11) ?x1729) (_ bv0 11) ?x1729)))
 (let ((?x6973 (ite (and (distinct ((_ extract 3 2) C) (_ bv0 2)) true) (ite (and (distinct ((_ extract 3 3) C) (_ bv0 1)) true) (_ bv3 32) (_ bv2 32)) (ite (and (distinct ((_ extract 1 1) C) (_ bv0 1)) true) (_ bv1 32) (_ bv0 32)))))
 (let ((?x3664 (ite (and (distinct ((_ extract 7 6) C) (_ bv0 2)) true) (ite (and (distinct ((_ extract 7 7) C) (_ bv0 1)) true) (_ bv7 32) (_ bv6 32)) (ite (and (distinct ((_ extract 5 5) C) (_ bv0 1)) true) (_ bv5 32) (_ bv4 32)))))
 (let ((?x4193 (ite (and (distinct ((_ extract 11 10) C) (_ bv0 2)) true) (ite (and (distinct ((_ extract 11 11) C) (_ bv0 1)) true) (_ bv11 32) (_ bv10 32)) (ite (and (distinct ((_ extract 9 9) C) (_ bv0 1)) true) (_ bv9 32) (_ bv8 32)))))
 (let ((?x2573 (ite (and (distinct ((_ extract 15 14) C) (_ bv0 2)) true) (ite (and (distinct ((_ extract 15 15) C) (_ bv0 1)) true) (_ bv15 32) (_ bv14 32)) (ite (and (distinct ((_ extract 13 13) C) (_ bv0 1)) true) (_ bv13 32) (_ bv12 32)))))
 (let ((?x6384 (ite (and (distinct ((_ extract 15 8) C) (_ bv0 8)) true) (ite (and (distinct ((_ extract 15 12) C) (_ bv0 4)) true) ?x2573 ?x4193) (ite (and (distinct ((_ extract 7 4) C) (_ bv0 4)) true) ?x3664 ?x6973))))
 (let (($x3775 (and (and (distinct (bvsub C3 C2) (_ bv0 11)) true) (= (bvand (bvsub C3 C2) (bvsub (bvsub C3 C2) (_ bv1 11))) (_ bv0 11)))))
 (and (and (and (distinct C (_ bv0 16)) true) (= (bvand C (bvsub C (_ bv1 16))) (_ bv0 16))) $x3775 (bvslt ?x6384 (_ bv11 32)) (not (and (bvult ?x3760 (_ bv11 11)) (bvult ?x7603 (_ bv11 11))))))))))))))))))))))))))
(check-sat)
